998001 1062051 8735 158
999805 1064501 8609 159
995527 1068879 8828 160
999396 1061415 8594 161
999120 1059002 8578 162
994744 1065885 10625 163
999120 1068533 8609 164
998467 1061245 8563 165
997224 1066541 8578 166
997304 1063402 8766 167
999169 1070053 8562 168
996275 1057625 8516 169
998543 1063292 8656 170
997604 1060765 8516 171
995097 1061152 8546 172
994145 1060821 8672 173
994207 1061101 8578 174
997762 1061942 8516 175
999147 1050600 8500 176
999989 1065601 8625 177
999922 1064694 8531 178
997845 1072260 8516 179
996367 1060276 10750 180
993777 1060342 8500 181
998619 1059972 8594 182
996160 1063637 8531 183
998432 1058864 8656 184
997517 1063124 8578 185
999663 1059236 8594 186
998524 1063165 8688 187
